NAME : tsp45_18.224.tour
COMMENT : Length = 224
COMMENT : Found by LKH [Keld Helsgaun]
TYPE : TOUR
DIMENSION : 45
TOUR_SECTION
1
2
16
41
34
10
40
45
43
32
31
4
27
28
13
35
5
11
30
22
42
33
7
38
20
12
19
26
29
24
6
36
9
15
3
17
8
21
25
39
18
37
14
44
23
-1
EOF
